     Program PWSCF v.6.1 (svn rev. 13369) starts on 12Apr2017 at 16: 2:33

     Current dimensions of program PWSCF are:
     Max number of different atomic species (ntypx) = 10
     Max number of k-points (npk) =  40000
     Max angular momentum in pseudopotentials (lmaxx) =  3

     IMPORTANT: XC functional enforced from input :
     Exchange-correlation      = PBE0 ( 6  4  8  4 0 0)
     EXX-fraction              =        0.25
     Any further DFT definition will be discarded
     Please, verify this is what you really want

     Subspace diagonalization in iterative solution of the eigenvalue problem:
     a serial algorithm will be used

     EXX: setup a grid of 256 q-points centered on each k-point
     (set verbosity='high' to see the list)

     bravais-lattice index     =            2
     lattice parameter (alat)  =      10.6921  a.u.
     unit-cell volume          =     305.5804 (a.u.)^3
     number of atoms/cell      =            2
     number of atomic types    =            1
     number of electrons       =         8.00
     number of Kohn-Sham states=            8
     kinetic-energy cutoff     =      12.0000  Ry
     charge density cutoff     =      48.0000  Ry
     cutoff for Fock operator  =      48.0000  Ry
     convergence threshold     =      1.0E-06
     mixing beta               =       0.7000
     number of iterations used =            8  plain     mixing
     Exchange-correlation      = PBE0 ( 6  4  8  4 0 0)
     EXX-fraction              =        0.25

     celldm(1)=  10.692070  celldm(2)=   0.000000  celldm(3)=   0.000000
     celldm(4)=   0.000000  celldm(5)=   0.000000  celldm(6)=   0.000000

     crystal axes: (cart. coord. in units of alat)
               a(1) = (  -0.500000   0.000000   0.500000 )
               a(2) = (   0.000000   0.500000   0.500000 )
               a(3) = (  -0.500000   0.500000   0.000000 )

     reciprocal axes: (cart. coord. in units 2 pi/alat)
               b(1) = ( -1.000000 -1.000000  1.000000 )
               b(2) = (  1.000000  1.000000  1.000000 )
               b(3) = ( -1.000000  1.000000 -1.000000 )

     PseudoPot. # 1 for Ge read from file:
     /home/efefer/pseudo/Ge.pz-bhs.UPF
     MD5 check sum: bb78d5f8e158bcc491d4c705bdf69fa7
     Pseudo is Norm-conserving, Zval =  4.0
     Generated by new atomic code, or converted to UPF format
     Using radial grid of  291 points,  2 beta functions with:
                l(1) =   0
                l(2) =   1

     atomic species   valence    mass     pseudopotential
        Ge             4.00    72.64000     Ge( 1.00)

     24 Sym. Ops. (no inversion) found
          (note: 24 additional sym.ops. were found but ignored
           their fractional translations are incommensurate with FFT grid)

   Cartesian axes

     site n.     atom                  positions (alat units)
         1           Ge  tau(   1) = (   0.0000000   0.0000000   0.0000000  )
         2           Ge  tau(   2) = (   0.2500000   0.2500000   0.2500000  )

     number of k points=    10
                       cart. coord. in units 2pi/alat
        k(    1) = (   0.1250000   0.1250000   0.1250000), wk =   0.0625000
        k(    2) = (   0.1250000   0.1250000   0.3750000), wk =   0.1875000
        k(    3) = (   0.1250000   0.1250000   0.6250000), wk =   0.1875000
        k(    4) = (   0.1250000   0.1250000   0.8750000), wk =   0.1875000
        k(    5) = (   0.1250000   0.3750000   0.3750000), wk =   0.1875000
        k(    6) = (   0.1250000   0.3750000   0.6250000), wk =   0.3750000
        k(    7) = (   0.1250000   0.3750000   0.8750000), wk =   0.3750000
        k(    8) = (   0.1250000   0.6250000   0.6250000), wk =   0.1875000
        k(    9) = (   0.3750000   0.3750000   0.3750000), wk =   0.0625000
        k(   10) = (   0.3750000   0.3750000   0.6250000), wk =   0.1875000

     Initial potential from superposition of free atoms

     starting charge    6.99990, renormalised to    8.00000
     Starting wfc are    8 randomized atomic wfcs

     Self-consistent Calculation

     iteration #  1     ecut=    12.00 Ry     beta=0.70
     Davidson diagonalization with overlap
     ethr =  1.00E-02,  avg # of iterations =  3.5

     Threshold (ethr) on eigenvalues was too large:
     Diagonalizing with lowered threshold

     Davidson diagonalization with overlap
     ethr =  3.05E-04,  avg # of iterations =  1.9

     total energy              =     -16.01151762 Ry
     Harris-Foulkes estimate   =     -16.01259347 Ry
     estimated scf accuracy    <       0.02462945 Ry

[...]

     End of self-consistent calculation

          k = 0.1250 0.1250 0.1250 (   208 PWs)   bands (ev):

    -6.9271   3.1485   5.1172   5.1172   6.8362   8.4944   8.4944   9.1356

[...]

     highest occupied, lowest unoccupied level (ev):     5.1172    6.0303

!    total energy              =     -16.01156720 Ry
     Harris-Foulkes estimate   =     -16.01156718 Ry
     estimated scf accuracy    <       0.00000008 Ry

     convergence has been achieved in   4 iterations

     EXX: now go back to refine exchange calculation

[...]

     total energy              =     -16.01535812 Ry
     Harris-Foulkes estimate   =     -16.01535812 Ry
     est. exchange err (dexx)  =       0.00019051 Ry
     - averaged Fock potential =       2.04642590 Ry
     + Fock energy             =      -1.02440847 Ry

[...]

     total energy              =     -16.01538934 Ry
     Harris-Foulkes estimate   =     -16.01539031 Ry
     estimated scf accuracy    <       0.00000278 Ry

[...]

     total energy              =     -16.01539517 Ry
     Harris-Foulkes estimate   =     -16.01539522 Ry
     est. exchange err (dexx)  =       0.00000582 Ry
     - averaged Fock potential =       2.04936560 Ry
     + Fock energy             =      -1.02496294 Ry

     EXX: now go back to refine exchange calculation

     Self-consistent Calculation

     iteration #  1     ecut=    12.00 Ry     beta=0.70
     Davidson diagonalization with overlap
     ethr =  3.47E-08,  avg # of iterations =  2.0

     Threshold (ethr) on eigenvalues was too large:
     Diagonalizing with lowered threshold

     Davidson diagonalization with overlap
     ethr =  1.33E-09,  avg # of iterations =  1.7

     End of self-consistent calculation

[...]

          k = 0.3750 0.3750 0.6250 (   219 PWs)   bands (ev):

    -6.8963  -3.4434   2.0858   2.9578   7.6695   9.8269  10.7393  13.8077

     highest occupied, lowest unoccupied level (ev):     4.4638    6.5968

!    total energy              =     -16.01539619 Ry
     Harris-Foulkes estimate   =     -16.01539623 Ry
     estimated scf accuracy    <       0.00000011 Ry

     convergence has been achieved in   1 iterations

!!   total energy              =     -16.01539642 Ry
     Harris-Foulkes estimate   =     -16.01539646 Ry
     est. exchange err (dexx)  =       0.00000023 Ry
     - averaged Fock potential =       2.05004947 Ry
     + Fock energy             =      -1.02508675 Ry

     EXX self-consistency reached

     Computing stress (Cartesian axis) and pressure

          total   stress  (Ry/bohr**3)                   (kbar)     P=  -62.05
  -0.00042180  -0.00000000  -0.00000000        -62.05     -0.00     -0.00
   0.00000000  -0.00042180   0.00000000          0.00    -62.05      0.00
  -0.00000000   0.00000000  -0.00042180         -0.00      0.00    -62.05

     Writing output data file pwscf.save

     General routines

     Parallel routines

     EXX routines

   This run was terminated on:  16: 6:49  12Apr2017

   JOB DONE.